50
2183

188 783
949 930
512 869
148 778
19 708
735 353
297 625
274 143
118 676
791 588
44 294
440 409
194 796
167 755
585 237
302 63
455 66
82 736
623 98
58 160
680 202
487 859
222 378
919 917
373 234
934 115
980 272
740 721
974 864
140 206
949 680
860 28
534 917
811 206
723 374
1 779
418 740
491 204
169 407
529 20
717 326
380 288
662 520
569 850
165 574
418 847
494 16
218 424
747 580
732 664
